946110
0 20 6578
20 9 5744
9 34 6355
34 1 10541
1 26 15288
26 18 17774
18 39 13572
39 17 18404
17 6 20722
6 12 23211
12 27 6411
27 30 12751
30 29 10287
29 36 941
36 38 6534
38 24 4093
24 22 11530
22 37 7449
37 28 745
28 33 35284
33 11 39715
11 32 3967
32 25 15458
25 19 24941
19 31 24202
31 4 3290
4 23 63665
23 21 45980
21 3 23621
3 15 84230
15 2 71701
2 13 30026
13 16 42391
16 14 45489
14 7 26227
7 8 54349
8 5 47658
5 35 22446
35 10 33808
10 0 8732
